c Random generated cnf formula, satisfiable: false
p cnf 10 50
-3 -2 7 0
10 7 4 0
-5 -10 -6 0
-10 8 3 0
-1 -7 9 0
10 -9 -7 0
5 -1 2 0
1 -10 6 0
3 1 -5 0
6 9 -3 0
9 4 2 0
1 9 -8 0
-9 10 1 0
-3 -8 9 0
-9 3 -5 0
10 3 -9 0
-2 5 -8 0
-7 10 -4 0
2 1 -3 0
2 -3 -8 0
7 -1 -4 0
-9 -7 5 0
1 3 -2 0
2 -5 9 0
-10 -8 6 0
4 10 -8 0
-10 3 -9 0
7 4 1 0
10 7 9 0
-6 2 3 0
9 -10 -3 0
-6 -9 2 0
-8 1 7 0
-1 -9 -6 0
2 -10 9 0
4 6 2 0
2 5 -10 0
10 2 -9 0
9 2 1 0
1 -2 4 0
4 -3 10 0
-3 -8 -1 0
8 9 4 0
5 2 7 0
8 -9 4 0
-7 -10 6 0
-6 -7 3 0
8 -4 3 0
-4 8 -1 0
-4 -1 -9 0
